*NAME:         misc01
*ROWS:         54
*COLUMNS:      83
*INTEGER:      82
*NONZERO:      745
*BEST SOLN:    563.5 (opt)
*LP SOLN:      57.0
*SOURCE:       
*      
*              Greg Astfalk (Convex)
*APPLICATION:  unknown
*COMMENTS:     all integer variables are binary 
*      
*      
NAME          MISC01
ROWS
 N  ROW055  
 E  ROW001  
 E  ROW002  
 E  ROW003  
 E  ROW004  
 E  ROW005  
 L  ROW006  
 L  ROW007  
 G  ROW008  
 G  ROW009  
 G  ROW010  
 G  ROW011  
 G  ROW012  
 G  ROW013  
 G  ROW014  
 G  ROW015  
 G  ROW016  
 G  ROW017  
 G  ROW018  
 G  ROW019  
 G  ROW020  
 G  ROW021  
 G  ROW022  
 E  ROW023  
 E  ROW024  
 E  ROW025  
 E  ROW026  
 E  ROW027  
 E  ROW028  
 E  ROW029  
 E  ROW030  
 E  ROW031  
 E  ROW032  
 E  ROW033  
 E  ROW034  
 L  ROW035  
 L  ROW036  
 L  ROW037  
 L  ROW038  
 L  ROW039  
 L  ROW040  
 L  ROW041  
 L  ROW042  
 L  ROW043  
 L  ROW044  
 L  ROW045  
 L  ROW046  
 L  ROW047  
 L  ROW048  
 L  ROW049  
 L  ROW050  
 L  ROW051  
 L  ROW052  
 L  ROW053  
 L  ROW054  
COLUMNS
    MARK0000  'MARKER'                 'INTORG'
    COL001    ROW002               1   ROW006              50
    COL001    ROW039               1   ROW041               1
    COL002    ROW002               1   ROW007              50
    COL002    ROW040               1   ROW042               1
    COL003    ROW001             -10   ROW002               1
    COL003    ROW006              50   ROW008               1
    COL003    ROW012               1   ROW016               1
    COL003    ROW020               1   ROW023               1
    COL003    ROW024              -1   ROW039               1
    COL003    ROW041               1
    COL004    ROW001             -10   ROW002               1
    COL004    ROW007              50   ROW008               1
    COL004    ROW012               1   ROW016               1
    COL004    ROW020               1   ROW029               1
    COL004    ROW030              -1   ROW040               1
    COL004    ROW042               1
    COL005    ROW001             -50   ROW002               1
    COL005    ROW006              50   ROW008               1
    COL005    ROW010               1   ROW016               1
    COL005    ROW018               1   ROW023               1
    COL005    ROW025              -1   ROW039               1
    COL005    ROW041               1
    COL006    ROW001             -50   ROW002               1
    COL006    ROW007              50   ROW008               1
    COL006    ROW010               1   ROW016               1
    COL006    ROW018               1   ROW029               1
    COL006    ROW031              -1   ROW040               1
    COL006    ROW042               1
    COL007    ROW001             -70   ROW002               1
    COL007    ROW006              50   ROW008               1
    COL007    ROW010               1   ROW012               1
    COL007    ROW014               1   ROW023               1
    COL007    ROW026              -1   ROW039               1
    COL007    ROW041               1
    COL008    ROW001             -70   ROW002               1
    COL008    ROW007              50   ROW008               1
    COL008    ROW010               1   ROW012               1
    COL008    ROW014               1   ROW029               1
    COL008    ROW032              -1   ROW040               1
    COL008    ROW042               1
    COL009    ROW001             -10   ROW002               1
    COL009    ROW006              50   ROW023               1
    COL009    ROW027              -1   ROW035               1
    COL009    ROW039               1   ROW041               1
    COL010    ROW001             -10   ROW002               1
    COL010    ROW007              50   ROW029               1
    COL010    ROW033              -1   ROW036               1
    COL010    ROW040               1   ROW042               1
    COL011    ROW001             -30   ROW002               1
    COL011    ROW006              50   ROW023               1
    COL011    ROW028              -1   ROW035               1
    COL011    ROW039               1   ROW041               1
    COL012    ROW001             -30   ROW002               1
    COL012    ROW007              50   ROW029               1
    COL012    ROW034              -1   ROW036               1
    COL012    ROW040               1   ROW042               1
    COL013    ROW001             -10   ROW003               1
    COL013    ROW006              60   ROW009               1
    COL013    ROW013               1   ROW017               1
    COL013    ROW021               1   ROW023              -1
    COL013    ROW024               1   ROW043               1
    COL013    ROW045               1
    COL014    ROW001             -10   ROW003               1
    COL014    ROW007              60   ROW009               1
    COL014    ROW013               1   ROW017               1
    COL014    ROW021               1   ROW029              -1
    COL014    ROW030               1   ROW044               1
    COL014    ROW046               1
    COL015    ROW003               1   ROW006              60
    COL015    ROW043               1   ROW045               1
    COL016    ROW003               1   ROW007              60
    COL016    ROW044               1   ROW046               1
    COL017    ROW001             -70   ROW003               1
    COL017    ROW006              60   ROW009               1
    COL017    ROW010               1   ROW017               1
    COL017    ROW018               1   ROW024               1
    COL017    ROW025              -1   ROW043               1
    COL017    ROW045               1
    COL018    ROW001             -70   ROW003               1
    COL018    ROW007              60   ROW009               1
    COL018    ROW010               1   ROW017               1
    COL018    ROW018               1   ROW030               1
    COL018    ROW031              -1   ROW044               1
    COL018    ROW046               1
    COL019    ROW001             -50   ROW003               1
    COL019    ROW006              60   ROW009               1
    COL019    ROW010               1   ROW013               1
    COL019    ROW014               1   ROW024               1
    COL019    ROW026              -1   ROW043               1
    COL019    ROW045               1
    COL020    ROW001             -50   ROW003               1
    COL020    ROW007              60   ROW009               1
    COL020    ROW010               1   ROW013               1
    COL020    ROW014               1   ROW030               1
    COL020    ROW032              -1   ROW044               1
    COL020    ROW046               1
    COL021    ROW001             -30   ROW003               1
    COL021    ROW006              60   ROW024               1
    COL021    ROW027              -1   ROW035               1
    COL021    ROW043               1   ROW045               1
    COL022    ROW001             -30   ROW003               1
    COL022    ROW007              60   ROW030               1
    COL022    ROW033              -1   ROW036               1
    COL022    ROW044               1   ROW046               1
    COL023    ROW001             -10   ROW003               1
    COL023    ROW006              60   ROW024               1
    COL023    ROW028              -1   ROW035               1
    COL023    ROW043               1   ROW045               1
    COL024    ROW001             -10   ROW003               1
    COL024    ROW007              60   ROW030               1
    COL024    ROW034              -1   ROW036               1
    COL024    ROW044               1   ROW046               1
    COL025    ROW001             -50   ROW004               1
    COL025    ROW006              70   ROW011               1
    COL025    ROW013               1   ROW019               1
    COL025    ROW021               1   ROW023              -1
    COL025    ROW025               1   ROW047               1
    COL025    ROW049               1
    COL026    ROW001             -50   ROW004               1
    COL026    ROW007              70   ROW011               1
    COL026    ROW013               1   ROW019               1
    COL026    ROW021               1   ROW029              -1
    COL026    ROW031               1   ROW048               1
    COL026    ROW050               1
    COL027    ROW001             -70   ROW004               1
    COL027    ROW006              70   ROW011               1
    COL027    ROW012               1   ROW019               1
    COL027    ROW020               1   ROW024              -1
    COL027    ROW025               1   ROW047               1
    COL027    ROW049               1
    COL028    ROW001             -70   ROW004               1
    COL028    ROW007              70   ROW011               1
    COL028    ROW012               1   ROW019               1
    COL028    ROW020               1   ROW030              -1
    COL028    ROW031               1   ROW048               1
    COL028    ROW050               1
    COL029    ROW004               1   ROW006              70
    COL029    ROW047               1   ROW049               1
    COL030    ROW004               1   ROW007              70
    COL030    ROW048               1   ROW050               1
    COL031    ROW001              -7   ROW004               1
    COL031    ROW006              70   ROW011               1
    COL031    ROW012               1   ROW013               1
    COL031    ROW014               1   ROW025               1
    COL031    ROW026              -1   ROW047               1
    COL031    ROW049               1
    COL032    ROW001              -7   ROW004               1
    COL032    ROW007              70   ROW011               1
    COL032    ROW012               1   ROW013               1
    COL032    ROW014               1   ROW031               1
    COL032    ROW032              -1   ROW048               1
    COL032    ROW050               1
    COL033    ROW001              -8   ROW004               1
    COL033    ROW006              70   ROW025               1
    COL033    ROW027              -1   ROW035               1
    COL033    ROW047               1   ROW049               1
    COL034    ROW001              -8   ROW004               1
    COL034    ROW007              70   ROW031               1
    COL034    ROW033              -1   ROW036               1
    COL034    ROW048               1   ROW050               1
    COL035    ROW001             -15   ROW004               1
    COL035    ROW006              70   ROW025               1
    COL035    ROW028              -1   ROW035               1
    COL035    ROW047               1   ROW049               1
    COL036    ROW001             -15   ROW004               1
    COL036    ROW007              70   ROW031               1
    COL036    ROW034              -1   ROW036               1
    COL036    ROW048               1   ROW050               1
    COL037    ROW001             -70   ROW005               1
    COL037    ROW006              40   ROW015               1
    COL037    ROW017               1   ROW019               1
    COL037    ROW021               1   ROW023              -1
    COL037    ROW026               1   ROW051               1
    COL037    ROW053               1
    COL038    ROW001             -70   ROW005               1
    COL038    ROW007              40   ROW015               1
    COL038    ROW017               1   ROW019               1
    COL038    ROW021               1   ROW029              -1
    COL038    ROW032               1   ROW052               1
    COL038    ROW054               1
    COL039    ROW001             -50   ROW005               1
    COL039    ROW006              40   ROW015               1
    COL039    ROW016               1   ROW019               1
    COL039    ROW020               1   ROW024              -1
    COL039    ROW026               1   ROW051               1
    COL039    ROW053               1
    COL040    ROW001             -50   ROW005               1
    COL040    ROW007              40   ROW015               1
    COL040    ROW016               1   ROW019               1
    COL040    ROW020               1   ROW030              -1
    COL040    ROW032               1   ROW052               1
    COL040    ROW054               1
    COL041    ROW001              -7   ROW005               1
    COL041    ROW006              40   ROW015               1
    COL041    ROW016               1   ROW017               1
    COL041    ROW018               1   ROW025              -1
    COL041    ROW026               1   ROW051               1
    COL041    ROW053               1
    COL042    ROW001              -7   ROW005               1
    COL042    ROW007              40   ROW015               1
    COL042    ROW016               1   ROW017               1
    COL042    ROW018               1   ROW031              -1
    COL042    ROW032               1   ROW052               1
    COL042    ROW054               1
    COL043    ROW005               1   ROW006              40
    COL043    ROW051               1   ROW053               1
    COL044    ROW005               1   ROW007              40
    COL044    ROW052               1   ROW054               1
    COL045    ROW001             -30   ROW005               1
    COL045    ROW006              40   ROW026               1
    COL045    ROW027              -1   ROW035               1
    COL045    ROW051               1   ROW053               1
    COL046    ROW001             -30   ROW005               1
    COL046    ROW007              40   ROW032               1
    COL046    ROW033              -1   ROW036               1
    COL046    ROW052               1   ROW054               1
    COL047    ROW001             -12   ROW005               1
    COL047    ROW006              40   ROW026               1
    COL047    ROW028              -1   ROW035               1
    COL047    ROW051               1   ROW053               1
    COL048    ROW001             -12   ROW005               1
    COL048    ROW007              40   ROW032               1
    COL048    ROW034              -1   ROW036               1
    COL048    ROW052               1   ROW054               1
    COL049    ROW001             -10   ROW009               1
    COL049    ROW011               1   ROW013               1
    COL049    ROW015               1   ROW017               1
    COL049    ROW019               1   ROW021               1
    COL049    ROW022               1   ROW023              -1
    COL049    ROW027               1   ROW039               1
    COL049    ROW043               1   ROW047               1
    COL049    ROW051               1
    COL050    ROW001             -10   ROW009               1
    COL050    ROW011               1   ROW013               1
    COL050    ROW015               1   ROW017               1
    COL050    ROW019               1   ROW021               1
    COL050    ROW022               1   ROW029              -1
    COL050    ROW033               1   ROW040               1
    COL050    ROW044               1   ROW048               1
    COL050    ROW052               1
    COL051    ROW001             -30   ROW008               1
    COL051    ROW011               1   ROW012               1
    COL051    ROW015               1   ROW016               1
    COL051    ROW019               1   ROW020               1
    COL051    ROW022               1   ROW024              -1
    COL051    ROW027               1   ROW039               1
    COL051    ROW043               1   ROW047               1
    COL051    ROW051               1
    COL052    ROW001             -30   ROW008               1
    COL052    ROW011               1   ROW012               1
    COL052    ROW015               1   ROW016               1
    COL052    ROW019               1   ROW020               1
    COL052    ROW022               1   ROW030              -1
    COL052    ROW033               1   ROW040               1
    COL052    ROW044               1   ROW048               1
    COL052    ROW052               1
    COL053    ROW001              -8   ROW008               1
    COL053    ROW009               1   ROW010               1
    COL053    ROW015               1   ROW016               1
    COL053    ROW017               1   ROW018               1
    COL053    ROW022               1   ROW025              -1
    COL053    ROW027               1   ROW039               1
    COL053    ROW043               1   ROW047               1
    COL053    ROW051               1
    COL054    ROW001              -8   ROW008               1
    COL054    ROW009               1   ROW010               1
    COL054    ROW015               1   ROW016               1
    COL054    ROW017               1   ROW018               1
    COL054    ROW022               1   ROW031              -1
    COL054    ROW033               1   ROW040               1
    COL054    ROW044               1   ROW048               1
    COL054    ROW052               1
    COL055    ROW001             -30   ROW008               1
    COL055    ROW009               1   ROW010               1
    COL055    ROW011               1   ROW012               1
    COL055    ROW013               1   ROW014               1
    COL055    ROW022               1   ROW026              -1
    COL055    ROW027               1   ROW039               1
    COL055    ROW043               1   ROW047               1
    COL055    ROW051               1
    COL056    ROW001             -30   ROW008               1
    COL056    ROW009               1   ROW010               1
    COL056    ROW011               1   ROW012               1
    COL056    ROW013               1   ROW014               1
    COL056    ROW022               1   ROW032              -1
    COL056    ROW033               1   ROW040               1
    COL056    ROW044               1   ROW048               1
    COL056    ROW052               1
    COL057    ROW039               1   ROW043               1
    COL057    ROW047               1   ROW051               1
    COL058    ROW040               1   ROW044               1
    COL058    ROW048               1   ROW052               1
    COL059    ROW001             -17   ROW027               1
    COL059    ROW028              -1   ROW039               1
    COL059    ROW043               1   ROW047               1
    COL059    ROW051               1
    COL060    ROW001             -17   ROW033               1
    COL060    ROW034              -1   ROW040               1
    COL060    ROW044               1   ROW048               1
    COL060    ROW052               1
    COL061    ROW001             -30   ROW009               1
    COL061    ROW011               1   ROW013               1
    COL061    ROW015               1   ROW017               1
    COL061    ROW019               1   ROW021               1
    COL061    ROW022               1   ROW023              -1
    COL061    ROW028               1   ROW041               1
    COL061    ROW045               1   ROW049               1
    COL061    ROW053               1
    COL062    ROW001             -30   ROW009               1
    COL062    ROW011               1   ROW013               1
    COL062    ROW015               1   ROW017               1
    COL062    ROW019               1   ROW021               1
    COL062    ROW022               1   ROW029              -1
    COL062    ROW034               1   ROW042               1
    COL062    ROW046               1   ROW050               1
    COL062    ROW054               1
    COL063    ROW001             -10   ROW008               1
    COL063    ROW011               1   ROW012               1
    COL063    ROW015               1   ROW016               1
    COL063    ROW019               1   ROW020               1
    COL063    ROW022               1   ROW024              -1
    COL063    ROW028               1   ROW041               1
    COL063    ROW045               1   ROW049               1
    COL063    ROW053               1
    COL064    ROW001             -10   ROW008               1
    COL064    ROW011               1   ROW012               1
    COL064    ROW015               1   ROW016               1
    COL064    ROW019               1   ROW020               1
    COL064    ROW022               1   ROW030              -1
    COL064    ROW034               1   ROW042               1
    COL064    ROW046               1   ROW050               1
    COL064    ROW054               1
    COL065    ROW001             -15   ROW008               1
    COL065    ROW009               1   ROW010               1
    COL065    ROW015               1   ROW016               1
    COL065    ROW017               1   ROW018               1
    COL065    ROW022               1   ROW025              -1
    COL065    ROW028               1   ROW041               1
    COL065    ROW045               1   ROW049               1
    COL065    ROW053               1
    COL066    ROW001             -15   ROW008               1
    COL066    ROW009               1   ROW010               1
    COL066    ROW015               1   ROW016               1
    COL066    ROW017               1   ROW018               1
    COL066    ROW022               1   ROW031              -1
    COL066    ROW034               1   ROW042               1
    COL066    ROW046               1   ROW050               1
    COL066    ROW054               1
    COL067    ROW001             -12   ROW008               1
    COL067    ROW009               1   ROW010               1
    COL067    ROW011               1   ROW012               1
    COL067    ROW013               1   ROW014               1
    COL067    ROW022               1   ROW026              -1
    COL067    ROW028               1   ROW041               1
    COL067    ROW045               1   ROW049               1
    COL067    ROW053               1
    COL068    ROW001             -12   ROW008               1
    COL068    ROW009               1   ROW010               1
    COL068    ROW011               1   ROW012               1
    COL068    ROW013               1   ROW014               1
    COL068    ROW022               1   ROW032              -1
    COL068    ROW034               1   ROW042               1
    COL068    ROW046               1   ROW050               1
    COL068    ROW054               1
    COL069    ROW001             -17   ROW027              -1
    COL069    ROW028               1   ROW041               1
    COL069    ROW045               1   ROW049               1
    COL069    ROW053               1
    COL070    ROW001             -17   ROW033              -1
    COL070    ROW034               1   ROW042               1
    COL070    ROW046               1   ROW050               1
    COL070    ROW054               1
    COL071    ROW041               1   ROW045               1
    COL071    ROW049               1   ROW053               1
    COL072    ROW042               1   ROW046               1
    COL072    ROW050               1   ROW054               1
    COL073    ROW001            -150   ROW037            -200
    COL074    ROW001            -170   ROW038            -200
    COL075    ROW001           -37.5   ROW037              50
    COL075    ROW039              -1   ROW040              -1
    COL076    ROW001             -35   ROW038              50
    COL076    ROW041              -1   ROW042              -1
    COL077    ROW001             -45   ROW037              60
    COL077    ROW043              -1   ROW044              -1
    COL078    ROW001             -42   ROW038              60
    COL078    ROW045              -1   ROW046              -1
    COL079    ROW001           -52.5   ROW037              70
    COL079    ROW047              -1   ROW048              -1
    COL080    ROW001             -49   ROW038              70
    COL080    ROW049              -1   ROW050              -1
    COL081    ROW001             -30   ROW037              40
    COL081    ROW051              -1   ROW052              -1
    COL082    ROW001             -28   ROW038              40
    COL082    ROW053              -1   ROW054              -1
    MARK0001  'MARKER'                 'INTEND'
    COL083    ROW055               1   ROW001               1
RHS
    GRHS      ROW002               1   ROW003               1
    GRHS      ROW004               1   ROW005               1
    GRHS      ROW006             150   ROW007             150
    GRHS      ROW008               1   ROW009               1
    GRHS      ROW010               1   ROW011               1
    GRHS      ROW012               1   ROW013               1
    GRHS      ROW014               1   ROW015               1
    GRHS      ROW016               1   ROW017               1
    GRHS      ROW018               1   ROW019               1
    GRHS      ROW020               1   ROW021               1
    GRHS      ROW022               1   ROW035               1
    GRHS      ROW036               1   ROW039               1
    GRHS      ROW040               1   ROW041               1
    GRHS      ROW042               1   ROW043               1
    GRHS      ROW044               1   ROW045               1
    GRHS      ROW046               1   ROW047               1
    GRHS      ROW048               1   ROW049               1
    GRHS      ROW050               1   ROW051               1
    GRHS      ROW052               1   ROW053               1
    GRHS      ROW054               1
BOUNDS
 UP GBND      COL001               1
 UP GBND      COL002               1
 UP GBND      COL003               1
 UP GBND      COL004               1
 UP GBND      COL005               1
 UP GBND      COL006               1
 UP GBND      COL007               1
 UP GBND      COL008               1
 UP GBND      COL009               1
 UP GBND      COL010               1
 UP GBND      COL011               1
 UP GBND      COL012               1
 UP GBND      COL013               1
 UP GBND      COL014               1
 UP GBND      COL015               1
 UP GBND      COL016               1
 UP GBND      COL017               1
 UP GBND      COL018               1
 UP GBND      COL019               1
 UP GBND      COL020               1
 UP GBND      COL021               1
 UP GBND      COL022               1
 UP GBND      COL023               1
 UP GBND      COL024               1
 UP GBND      COL025               1
 UP GBND      COL026               1
 UP GBND      COL027               1
 UP GBND      COL028               1
 UP GBND      COL029               1
 UP GBND      COL030               1
 UP GBND      COL031               1
 UP GBND      COL032               1
 UP GBND      COL033               1
 UP GBND      COL034               1
 UP GBND      COL035               1
 UP GBND      COL036               1
 UP GBND      COL037               1
 UP GBND      COL038               1
 UP GBND      COL039               1
 UP GBND      COL040               1
 UP GBND      COL041               1
 UP GBND      COL042               1
 UP GBND      COL043               1
 UP GBND      COL044               1
 UP GBND      COL045               1
 UP GBND      COL046               1
 UP GBND      COL047               1
 UP GBND      COL048               1
 UP GBND      COL049               1
 UP GBND      COL050               1
 UP GBND      COL051               1
 UP GBND      COL052               1
 UP GBND      COL053               1
 UP GBND      COL054               1
 UP GBND      COL055               1
 UP GBND      COL056               1
 UP GBND      COL057               1
 UP GBND      COL058               1
 UP GBND      COL059               1
 UP GBND      COL060               1
 UP GBND      COL061               1
 UP GBND      COL062               1
 UP GBND      COL063               1
 UP GBND      COL064               1
 UP GBND      COL065               1
 UP GBND      COL066               1
 UP GBND      COL067               1
 UP GBND      COL068               1
 UP GBND      COL069               1
 UP GBND      COL070               1
 UP GBND      COL071               1
 UP GBND      COL072               1
 UP GBND      COL073               1
 UP GBND      COL074               1
 UP GBND      COL075               1
 UP GBND      COL076               1
 UP GBND      COL077               1
 UP GBND      COL078               1
 UP GBND      COL079               1
 UP GBND      COL080               1
 UP GBND      COL081               1
 UP GBND      COL082               1
 FR GBND      COL083  
ENDATA
